SYSTEM = Au  

ISTART = 0 
ICHARG = 2
ENCUT = 400 
PREC = Accurate 
NELM = 200
EDIFF = 1.e-6

IBRION = 2
NSW = 0
EDIFFG = 1.e-4


ISMEAR = 1  
SIGMA = 0.05
ALGO = Fast
LWAVE = F
LCHARG = F
LREAL  = .False.

LPLANE = .TRUE.
NPAR = 36
LSCALU = .FALSE.
NSIM = 16
