Automatic mesh
0              ! number of k-points = 0 ->automatic generation scheme
Gamma ! select Monkhorst-Pack (first letter is significant)
 4  4   4     ! size of mesh (4x4x4 points along b1, b2, b3)
0.0  0.0  0.0     !

