Au 
 1.0000000000000000
    12.5220000000000002    0.0000000000000000    0.0000000000000000
     0.0000000000000000   12.5220000000000002    0.0000000000000000
     0.0000000000000000    0.0000000000000000   35.7286733700000028
 Au 
 144
Cartesian
  1.8836454959464282  6.1048583475559779  3.4254532076230402
  1.9938456613074163  2.1573170694734296  3.6184968310840504
  2.5022515293366197  4.2864083002212814  1.5694690857084059
  4.2733722977027186  1.7081768211108506  1.2122003280347997
  4.5640996116155339  4.0308385051591493  3.5220342953650778
  3.8104556305224402  0.1554311188890701  3.6570533810102135
  2.1708979786862614  2.2345560023332012  7.9887890646021713
  4.4412279859965977  6.2584263737560963  1.3328797947422424
  1.8867330329502945  0.0252847095219418  5.9941561218513186
  0.1523730114021896  4.4461665281119709  8.2286129484211354
  4.1201486185684271  2.2287736669536424  5.8605813041621131
  3.5154039295008919  6.0804501807387954  6.2945767919796154
  4.1897391456289395  4.2617859481600142  8.2395441207943829
  1.9720178700661000  4.2240585997562272  5.4911539405967922
  0.0388994982623228  0.0590438319213044  3.8299586948036328
  1.8575532330727800  0.0016031722173206  1.7416083239626863
  1.9734255560556808  2.0910561602832538 12.8003482081472502
  2.3829047460786983  4.3031032844352666 10.6173731185845508
  0.2891531130439539  4.1845882829035066 12.5642949196808047
  3.5897479350448087  1.5846091045891584 10.4967839188408991
  5.8978456691576282  2.2249564740606109 13.0691988696259962
  5.7768104101774593  3.8337988065205262 10.5504205263613624
  3.9645926874000992  4.1718544614398709 13.0322624587398632
  3.3133609496274721  6.1745397267484625 15.0775267438426841
  0.1029594256776496  2.2266505902208000 10.7917572023467336
  0.4501226465945861  6.2151877662328801 15.2137981857557651
  3.9904438545829630  2.0855222524716397 15.0477437569778800
  1.6882913687297907  3.7600805455064799 15.2233332290642718
  0.2277573748124902  1.7107756291604626 15.9876276548139558
  5.7701238394233973  4.6662182774590022 14.8955712885320306
  5.9559061929244637  0.0008872362635053 14.8880224041710125
  2.2586811807967972  2.3011972588892098 35.2220128843809874
  4.0569969967829138  4.3749764418401682 34.7730635557568277
  2.2907473906574864  8.3655427860622158  1.6644703079800374
  0.0197631812632331  8.0434335399852639  3.7639335381605625
  1.9053661398487656  6.8839650247744286  8.5703123171405142
  2.2548805500601836 10.4595318009618090  3.6398669603353504
  0.2271674877813758  6.6489078898286254  1.0944446217499995
  4.2199570869499397 10.4099376146349236  1.6642822895420419
  3.8773206390642563  8.2235750067496909  4.3411800294024081
  5.8379538735359615 10.6332541975829482  3.7716037955531045
  0.1488661265968197 10.2965712490425041  5.9167949917602254
  0.1534589416868951  9.0784620830899616  8.3287469785392947
  2.6407543080162803 10.8596321330776764  8.2715110116641348
  4.9939336362105751 12.1289442665973688  8.4517309429037919
  4.3527542467776659  8.1901188287038771  7.9291291718363617
  4.5113912214177336 10.4873644145701785  6.0089999319929417
  2.0929697328328842  8.6377539538933750  6.3362245454629145
  1.9966540991530923 11.8722529466106312 10.7392802990589615
  1.8302560132431300  6.5532991922245856 12.7702894148822725
  1.7961221371755773  8.6406198679474482 10.7303457999378331
  1.5865605230353315 10.5488523123009941 13.2079832807063688
  4.0263650167855927  9.9323199825900481 10.4329679509978632
  3.8671972450525263  8.6117186605097640 13.0234472322647861
  3.8214702939574146  6.2729095434716049 10.2198177784371982
  6.1785007049001974  7.9123997024869102 10.8922685682245799
  4.0108951717632095 12.2029707619560757 12.7032279514137318
  6.1063989921945590  7.1575159197289118 13.7949059161302419
  2.0703450389177842 12.3259877902084511 15.2211470892939733
  1.8532339562669757  8.6565282211746037 14.9424331693302683
  4.1978056453765804 10.3909780276760060 15.2699818359170099
  0.5238395553659356 11.3386205952848176 35.0250827465058450
  3.0004035231570434  9.8175332438224370 34.5500994530649166
  5.2693752783394485  8.2614208874642827 35.1749473612427934
  5.9688761019786831 10.8273261259591997 35.0242602111333099
  2.6884763809909717  6.8206491723997607 35.0614785387347609
  3.2844906495623389 12.5040310491596447 35.1853235023059767
  0.4330797965854393  8.8461362283794127 34.9592456658526913
  6.2953160231533767  2.1447107880629273  3.7312377220305395
  8.5273745643780483  1.9597161641814971  1.5300784463073911
 10.1086445431282108  1.8035791512829480  4.0061047009771880
 10.3037691753100642  4.1297913654806324  1.8191165958562463
  8.4719619056952471  4.2354441159151648  4.4345962673504626
 10.5877569880543820  6.0381362666544875  4.1422190919008948
  6.3560240417097909  6.1696759870465128  3.9162060721490715
  8.2814314642005744  5.9927702279510715  1.7491039508247188
 12.4019635871477050  6.0182995414987399  6.2707717843473025
 11.8910808014122420  2.0018999837138893  1.6777311574631832
 12.1984211077607281  3.6782899139685865  3.7812188359289056
 10.3059341169968590  1.8283322624513454  8.6708336223228120
 10.3401447376123468  3.9283921577148795  6.5003497043398468
 12.3377423724123396  2.2538204040501766  6.1855782404559481
  8.4766389772368065  4.4328766068641219  8.4571350539148114
  8.4205609282888982  1.7569381993797006  6.3913589949514824
  6.3319069988707950  2.2659894821546769  8.0816552926355687
  6.3114795218200896  4.0303879977798491  5.9358800883480169
  6.5173404387358556  3.9833056334128720  1.4565765380342450
  6.2807735208840967  0.1485013472035191  5.8780387853725564
  8.2738646159485807  2.5007309064339145 10.9759238427992081
  8.4578632622329000  0.2225131386376082 13.1348755759514617
 10.2334090318485256  2.6909412837413633 12.7225087350146637
 10.3480734487906592  4.1691806263303768 10.2908471305456306
  7.5278749448341156  4.6635908892275104 12.6429334998063752
 10.3306305224418598  5.7894896927195383 12.8777647294091206
  6.2659799675432382  0.6979274073464743 10.7257584957421539
 11.9510855604536577  0.2116161175275366 12.6330003404500122
 10.3988242476671537  1.1195504116769985 14.9210674118108741
  8.2981615008930234  2.9871920631358391 14.8500838233942432
 11.2000540097371388  4.0175157891006474 15.1469794972282710
 12.4713895606725522  0.0693065434404311  9.1010096322994887
 12.4856230705099556  6.1276168764404835 10.7770155750485301
 10.0388900749823584  0.0083094651130864 10.7983627075389901
 10.7000724164107197  0.5733627661624966 35.1661770361502022
 11.9320092898225294  3.0155309774432468 34.6700220506240981
 10.8305570462299858  5.1675949182437879 34.7728716508312417
  6.9427129577438240  5.6934974495686692 35.0670738266426980
  8.7218010330671714  3.6501085538307785 34.9574381599121153
  6.5343675708600442  1.8942739507903648 35.0478958815192172
 12.2885447907741465 10.2617968641090780  1.6560145354792797
 10.2996377747937764 12.2513995930704347  1.9841772706394778
 10.2846811095082398  7.4993929615315613  0.6080035019721770
  8.2671520396427471 10.4444723423146062  1.4162707387529208
  8.6466138253078313  8.1832763164331155  3.9893966503042151
 10.6306053412444967 10.6079697961982866  4.1823012977354113
  8.3481543700927272 11.9557389524017488  4.0391226454130242
  6.3387848315822275  8.6293382471857161  2.2249055487711327
  6.6447322757882326  6.3979827233782736  8.7328153264393187
  6.4915010726669466  8.6466558442353740  6.0038647793909741
 10.5249930908827452  6.5080455619849058  8.4374767189053745
  8.5102824404803261  8.4210295001218647  8.1320641011789707
  8.6102865877555885 10.5686989117745576  6.5179677973247463
 10.5844632879411282 10.6428704883059453  8.7978725581816839
  8.2456831343300152  6.2967309724295548  6.3826730596801244
  6.2823633285920115  9.8631932314164796  8.8337829676540220
 10.9136642140679285  8.0295736174225070  6.1910688107406395
  7.8719652538536096 12.2652269858461533  8.5831904164442676
 10.7506144192623285 12.4437507771142322  6.3976114799413013
  6.3542451517801188 12.4441954823517769  1.5045829833019562
 12.1972727036074318 10.2778815670831722 11.2467542955788904
 11.7440819630926025  8.2647349431674773 13.2267013591902050
  6.9791099960273115 10.4010826326100236 13.2554286960702452
 10.5942272748659274  8.0934745996671058 10.7347149749558994
  8.4408051393770691  9.9771237746220933 10.6629876029182409
  8.4925544007136278  8.1201864678252296 13.5111410263904563
  9.8936988210663976 10.3068997663428910 12.9747100898430858
  6.7777973221985350  9.6564974840935403 15.7046890726621520
  8.4893529852250911  6.4384708685687837 10.8091410160942853
 12.0710624538182945 11.0926630279119127 16.0645282658327169
 10.3511478552114689  7.0792558151152472 15.3346050039493296
  8.5753558605601246 12.1172508764974047 15.9015521679692160
  9.6377209138628057  9.7196015954162061 15.7456751490964724
 10.3066966811789218  9.9513406417097752 35.0377294769563150
  8.4191517124375768 12.2005486817046300 35.1581723469638803
  7.9358664649324382  8.4405241685441563 35.3179567292243206
